100
1000
199
198
198
198
196
194
194
193
192
192
191
191
191
191
190
189
189
189
188
188
188
188
187
187
187
187
187
187
186
186
186
185
185
185
185
185
183
183
183
183
182
182
181
180
179
179
177
175
174
174
174
174
173
173
173
173
171
170
170
170
169
169
168
167
166
166
165
165
165
164
164
163
161
160
160
160
160
160
159
159
159
159
159
159
158
158
157
155
155
154
154
152
152
152
151
151
151
150
150
150
